(set-logic QF_S)
(declare-fun var0 () String)
(declare-fun var1 () String)
(declare-fun var2 () String)
(declare-fun var3 () String)
(declare-fun var4 () String)
(declare-fun var5 () String)
(declare-fun var6 () String)
(declare-fun var7 () String)
(declare-fun var8 () String)
(declare-fun var9 () String)
(declare-fun var10 () String)
(declare-fun var11 () String)
(declare-fun var12 () String)
(declare-fun var13 () String)
(declare-fun var14 () String)
(declare-fun var15 () String)
(declare-fun var16 () String)
(declare-fun var17 () String)
(declare-fun var18 () String)
(declare-fun var19 () String)
(declare-fun var20 () String)
(declare-fun var21 () String)
(declare-fun var22 () String)
(declare-fun var23 () String)
(declare-fun var24 () String)
(declare-fun var25 () String)
(declare-fun var26 () String)
(declare-fun var27 () String)
(declare-fun var28 () String)
(declare-fun var29 () String)
(declare-fun var30 () String)
(declare-fun var31 () String)
(declare-fun var32 () String)
(declare-fun var33 () String)
(declare-fun var34 () String)
(declare-fun var35 () String)
(declare-fun var36 () String)
(declare-fun var37 () String)
(declare-fun var38 () String)
(declare-fun var39 () String)
(declare-fun var40 () String)
(declare-fun var41 () String)
(declare-fun var42 () String)
(declare-fun var43 () String)
(declare-fun var44 () String)
(declare-fun var45 () String)
(declare-fun var46 () String)
(declare-fun var47 () String)
(declare-fun var48 () String)
(declare-fun var49 () String)
(declare-fun var50 () String)
(declare-fun var51 () String)
(declare-fun var52 () String)
(declare-fun var53 () String)
(declare-fun var54 () String)
(declare-fun var55 () String)
(declare-fun var56 () String)
(declare-fun var57 () String)
(declare-fun var58 () String)
(declare-fun var59 () String)
(declare-fun var60 () String)
(assert (= var0 (Concat var1 var2)))
(assert (= var2 (Concat var3 var4)))
(assert (= var4 (Concat var5 var6)))
(assert (= var6 (Concat var7 var8)))
(assert (= var8 (Concat var9 var10)))
(assert (= var10 (Concat var11 var12)))
(assert (= var12 (Concat var13 var14)))
(assert (= var14 (Concat var15 var16)))
(assert (= var16 (Concat var17 var18)))
(assert (= var18 (Concat var19 var20)))
(assert (= var20 (Concat var21 var22)))
(assert (= var22 (Concat var23 var24)))
(assert (= var24 (Concat var25 var26)))
(assert (= var26 (Concat var27 var28)))
(assert (= var28 (Concat var29 var30)))
(assert (= var30 (Concat var31 var32)))
(assert (= var32 (Concat var33 var34)))
(assert (= var34 (Concat var35 var36)))
(assert (= var36 (Concat var37 var38)))
(assert (= var38 (Concat var39 var40)))
(assert (= var40 (Concat var41 var42)))
(assert (= var42 (Concat var43 var44)))
(assert (= var44 (Concat var45 var46)))
(assert (= var46 (Concat var47 var48)))
(assert (= var48 (Concat var49 var50)))
(assert (= var50 (Concat var51 var52)))
(assert (= var52 (Concat var53 var54)))
(assert (= var54 (Concat var55 var56)))
(assert (= var56 (Concat var57 var58)))
(assert (= var58 (Concat var59 var60)))
(assert (= var0 "solution"))
(assert (= "^" (CharAt var13 585)))
(assert (= "t" (CharAt var42 203)))
(assert (= "X" (CharAt var26 508)))
(assert (= "P" (CharAt var15 341)))
(assert (= "I" (CharAt var56 155)))
(assert (= "N" (CharAt var6 629)))
(assert (= "o" (CharAt var13 280)))
(assert (= "@" (CharAt var10 325)))
(assert (= "O" (CharAt var33 839)))
(assert (= "E" (CharAt var12 495)))
(assert (= "&" (CharAt var29 592)))
(assert (= "d" (CharAt var10 810)))
(assert (= "3" (CharAt var60 31)))
(assert (= "=" (CharAt var60 518)))
(assert (= "\"" (CharAt var39 840)))
(assert (= "1" (CharAt var56 898)))
(assert (= "R" (CharAt var17 334)))
(assert (= "B" (CharAt var52 658)))
(assert (= "h" (CharAt var27 410)))
(assert (= "|" (CharAt var27 23)))
(assert (= "f" (CharAt var10 390)))
(assert (= "!" (CharAt var4 964)))
(assert (= "i" (CharAt var33 492)))
(assert (= "^" (CharAt var42 510)))
(assert (= "F" (CharAt var39 270)))
(assert (= "S" (CharAt var24 742)))
(assert (= "\\" (CharAt var9 406)))
(assert (= "8" (CharAt var46 574)))
(assert (= "R" (CharAt var2 299)))
(assert (= "-" (CharAt var49 950)))
(assert (= "j" (CharAt var57 591)))
(assert (= "i" (CharAt var30 691)))
(assert (= "c" (CharAt var24 581)))
(assert (= "\"" (CharAt var48 23)))
(assert (= "c" (CharAt var27 376)))
(assert (= "3" (CharAt var37 485)))
(assert (= "_" (CharAt var36 425)))
(assert (= "{" (CharAt var47 869)))
(assert (= "=" (CharAt var15 266)))
(assert (= "m" (CharAt var3 540)))
(assert (= "|" (CharAt var6 552)))
(assert (= "}" (CharAt var44 774)))
(assert (= "K" (CharAt var55 616)))
(assert (= "S" (CharAt var46 409)))
(assert (= "(" (CharAt var49 158)))
(assert (= "*" (CharAt var26 808)))
(assert (= "e" (CharAt var38 289)))
(assert (= "V" (CharAt var5 972)))
(assert (= "o" (CharAt var15 714)))
(assert (= "j" (CharAt var7 445)))
(assert (= "u" (CharAt var44 178)))
(assert (= "a" (CharAt var25 666)))
(assert (= "1" (CharAt var35 27)))
(assert (= "#" (CharAt var12 863)))
(assert (= "b" (CharAt var33 139)))
(assert (= "g" (CharAt var14 644)))
(assert (= "F" (CharAt var38 407)))
(assert (= "u" (CharAt var45 31)))
(assert (= "6" (CharAt var24 178)))
(assert (= "I" (CharAt var5 370)))
(assert (= "\"" (CharAt var16 435)))
(assert (= "W" (CharAt var58 280)))
(assert (= "f" (CharAt var14 796)))
(assert (= "E" (CharAt var7 65)))
(assert (= "." (CharAt var29 568)))
(assert (= "~" (CharAt var26 950)))
(assert (= "^" (CharAt var35 36)))
(assert (= "2" (CharAt var27 626)))
(assert (= "1" (CharAt var25 7)))
(assert (= "o" (CharAt var15 437)))
(assert (= "L" (CharAt var5 267)))
(assert (= "p" (CharAt var59 50)))
(assert (= ">" (CharAt var50 193)))
(assert (= "0" (CharAt var33 482)))
(assert (= "~" (CharAt var4 287)))
(assert (= ";" (CharAt var21 673)))
(assert (= "k" (CharAt var51 828)))
(assert (= "A" (CharAt var41 306)))
(assert (= ";" (CharAt var33 687)))
(assert (= "f" (CharAt var43 586)))
(assert (= "M" (CharAt var56 431)))
(assert (= ">" (CharAt var7 93)))
(assert (= "N" (CharAt var43 923)))
(assert (= "s" (CharAt var10 277)))
(assert (= "J" (CharAt var52 692)))
(assert (= "=" (CharAt var8 806)))
(assert (= "]" (CharAt var22 464)))
(assert (= "M" (CharAt var55 721)))
(assert (= ")" (CharAt var58 646)))
(assert (= "R" (CharAt var1 364)))
(assert (= "o" (CharAt var26 752)))
(assert (= "?" (CharAt var33 23)))
(assert (= "5" (CharAt var16 649)))
(assert (= "+" (CharAt var48 231)))
(assert (= "5" (CharAt var31 739)))
(assert (= "&" (CharAt var56 40)))
(assert (= "m" (CharAt var34 619)))
(assert (= "F" (CharAt var18 930)))
(assert (= "x" (CharAt var57 462)))
(assert (= "k" (CharAt var53 298)))
(assert (= "0" (CharAt var27 778)))
(assert (= "$" (CharAt var17 201)))
(assert (= "\"" (CharAt var12 445)))
(assert (= "6" (CharAt var26 598)))
(assert (= "c" (CharAt var15 756)))
(assert (= "0" (CharAt var5 891)))
(assert (= "d" (CharAt var5 634)))
(assert (= "8" (CharAt var13 399)))
(assert (= "=" (CharAt var21 418)))
(assert (= "&" (CharAt var38 291)))
(assert (= "w" (CharAt var47 196)))
(assert (= "b" (CharAt var37 195)))
(assert (= "U" (CharAt var58 773)))
(assert (= "W" (CharAt var4 334)))
(assert (= "O" (CharAt var8 215)))
(assert (= "@" (CharAt var52 601)))
(assert (= "3" (CharAt var46 43)))
(assert (= "%" (CharAt var33 581)))
(assert (= "w" (CharAt var34 578)))
(assert (= "w" (CharAt var49 992)))
(assert (= "~" (CharAt var38 134)))
(assert (= "s" (CharAt var12 83)))
(assert (= "." (CharAt var35 522)))
(assert (= "D" (CharAt var10 105)))
(assert (= "e" (CharAt var6 772)))
(assert (= "'" (CharAt var31 957)))
(assert (= "f" (CharAt var22 234)))
(assert (= "#" (CharAt var12 535)))
(assert (= "S" (CharAt var48 269)))
(assert (= "\"" (CharAt var37 468)))
(assert (= "P" (CharAt var24 289)))
(assert (= "u" (CharAt var41 262)))
(assert (= "." (CharAt var36 922)))
(assert (= "G" (CharAt var30 504)))
(assert (= "#" (CharAt var14 314)))
(assert (= ")" (CharAt var46 572)))
(assert (= "@" (CharAt var4 330)))
(assert (= "Y" (CharAt var29 468)))
(assert (= "f" (CharAt var43 467)))
(assert (= "N" (CharAt var52 170)))
(assert (= "t" (CharAt var38 849)))
(assert (= "/" (CharAt var5 178)))
(assert (= "/" (CharAt var41 161)))
(assert (= "z" (CharAt var26 246)))
(assert (= "G" (CharAt var30 703)))
(assert (= "z" (CharAt var38 991)))
(assert (= "U" (CharAt var45 669)))
(assert (= "j" (CharAt var36 888)))
(assert (= "S" (CharAt var42 54)))
(assert (= "@" (CharAt var27 371)))
(assert (= "*" (CharAt var30 594)))
(assert (= "]" (CharAt var60 110)))
(assert (= "A" (CharAt var21 345)))
(assert (= "y" (CharAt var17 683)))
(assert (= "t" (CharAt var52 885)))
(assert (= "d" (CharAt var8 351)))
(assert (= "t" (CharAt var60 132)))
(assert (= "F" (CharAt var28 431)))
(assert (= "f" (CharAt var47 5)))
(assert (= "v" (CharAt var30 206)))
(assert (= "9" (CharAt var37 633)))
(assert (= "2" (CharAt var56 114)))
(assert (= "6" (CharAt var53 47)))
(assert (= "d" (CharAt var22 580)))
(assert (= "M" (CharAt var6 667)))
(assert (= "D" (CharAt var30 843)))
(assert (= "`" (CharAt var10 122)))
(assert (= "q" (CharAt var4 800)))
(assert (= "A" (CharAt var26 549)))
(assert (= "@" (CharAt var16 285)))
(assert (= "g" (CharAt var8 528)))
(assert (= "m" (CharAt var19 930)))
(assert (= "." (CharAt var31 106)))
(assert (= "/" (CharAt var54 85)))
(assert (= "b" (CharAt var54 140)))
(assert (= "V" (CharAt var40 909)))
(assert (= "n" (CharAt var40 719)))
(assert (= "A" (CharAt var6 381)))
(assert (= "{" (CharAt var58 908)))
(assert (= "#" (CharAt var19 435)))
(assert (= "`" (CharAt var58 410)))
(assert (= "&" (CharAt var18 368)))
(assert (= "S" (CharAt var48 855)))
(assert (= "^" (CharAt var38 495)))
(assert (= "P" (CharAt var44 710)))
(assert (= "y" (CharAt var24 214)))
(assert (= "U" (CharAt var32 455)))
(assert (= "Z" (CharAt var13 549)))
(assert (= "F" (CharAt var58 907)))
(assert (= "@" (CharAt var59 979)))
(assert (= "N" (CharAt var15 256)))
(assert (= "`" (CharAt var36 599)))
(assert (= "9" (CharAt var50 636)))
(assert (= "1" (CharAt var20 273)))
(assert (= "z" (CharAt var14 370)))
(assert (= "?" (CharAt var18 899)))
(assert (= "+" (CharAt var36 848)))
(assert (= "_" (CharAt var42 330)))
(assert (= "." (CharAt var54 221)))
(assert (= "[" (CharAt var40 442)))
(assert (= "n" (CharAt var23 570)))
(assert (= "*" (CharAt var28 419)))
(assert (= "-" (CharAt var7 385)))
(assert (= ":" (CharAt var13 89)))
(assert (= "p" (CharAt var54 70)))
(assert (= "j" (CharAt var48 591)))
(assert (= "v" (CharAt var48 372)))
(assert (= "V" (CharAt var5 183)))
(assert (= "R" (CharAt var42 55)))
(assert (= "/" (CharAt var23 617)))
(assert (= "?" (CharAt var18 385)))
(assert (= "\\" (CharAt var0 618)))
(assert (= "3" (CharAt var21 698)))
(assert (= "X" (CharAt var46 393)))
(assert (= "p" (CharAt var50 680)))
(assert (= "]" (CharAt var9 86)))
(assert (= "{" (CharAt var56 256)))
(assert (= "~" (CharAt var56 180)))
(assert (= "7" (CharAt var52 386)))
(assert (= "g" (CharAt var55 976)))
(assert (= "f" (CharAt var52 686)))
(assert (= "k" (CharAt var0 380)))
(assert (= "\\" (CharAt var10 249)))
(assert (= "W" (CharAt var39 511)))
(assert (= "E" (CharAt var22 45)))
(assert (= "&" (CharAt var48 654)))
(assert (= "y" (CharAt var4 503)))
(assert (= "*" (CharAt var1 224)))
(assert (= ")" (CharAt var13 844)))
(assert (= "r" (CharAt var60 589)))
(assert (= "O" (CharAt var48 569)))
(assert (= "C" (CharAt var27 241)))
(assert (= "x" (CharAt var12 361)))
(assert (= "h" (CharAt var56 646)))
(assert (= "w" (CharAt var48 571)))
(assert (= "}" (CharAt var56 591)))
(assert (= "p" (CharAt var13 648)))
(assert (= "{" (CharAt var23 718)))
(assert (= "T" (CharAt var42 525)))
(assert (= "U" (CharAt var10 289)))
(assert (= "u" (CharAt var41 280)))
(assert (= "h" (CharAt var17 977)))
(assert (= "_" (CharAt var49 475)))
(assert (= "[" (CharAt var0 161)))
(assert (= "G" (CharAt var47 265)))
(assert (= "N" (CharAt var18 662)))
(assert (= "{" (CharAt var40 703)))
(assert (= "'" (CharAt var43 764)))
(assert (= "h" (CharAt var3 325)))
(assert (= "B" (CharAt var30 216)))
(assert (= "m" (CharAt var6 755)))
(assert (= ">" (CharAt var1 233)))
(assert (= "B" (CharAt var41 242)))
(assert (= "\\" (CharAt var22 503)))
(assert (= "\\" (CharAt var39 895)))
(assert (= "4" (CharAt var8 216)))
(assert (= "K" (CharAt var59 541)))
(assert (= "r" (CharAt var18 601)))
(assert (= "}" (CharAt var46 963)))
(assert (= "I" (CharAt var25 184)))
(assert (= "U" (CharAt var46 200)))
(assert (= "A" (CharAt var1 609)))
(assert (= "G" (CharAt var22 49)))
(assert (= "G" (CharAt var23 282)))
(assert (= "x" (CharAt var29 784)))
(assert (= "v" (CharAt var30 799)))
(assert (= "t" (CharAt var15 251)))
(assert (= "b" (CharAt var37 356)))
(assert (= "'" (CharAt var45 494)))
(assert (= "l" (CharAt var9 459)))
(assert (= "\"" (CharAt var29 544)))
(assert (= "0" (CharAt var5 708)))
(assert (= "q" (CharAt var3 139)))
(assert (= "/" (CharAt var46 793)))
(assert (= "e" (CharAt var38 961)))
(assert (= "/" (CharAt var15 489)))
(assert (= "\"" (CharAt var7 289)))
(assert (= "F" (CharAt var59 929)))
(assert (= "c" (CharAt var36 5)))
(assert (= "!" (CharAt var26 635)))
(assert (= "H" (CharAt var45 201)))
(assert (= "a" (CharAt var59 319)))
(assert (= "r" (CharAt var14 662)))
(assert (= "~" (CharAt var13 798)))
(assert (= "r" (CharAt var23 565)))
(assert (= "U" (CharAt var51 936)))
(assert (= "3" (CharAt var4 641)))
(assert (= "Q" (CharAt var45 988)))
(assert (= "a" (CharAt var1 521)))
(assert (= "$" (CharAt var29 716)))
(assert (= ";" (CharAt var44 461)))
(assert (= ")" (CharAt var4 762)))
(assert (= "t" (CharAt var21 359)))
(assert (= "c" (CharAt var10 601)))
(assert (= ";" (CharAt var35 177)))
(assert (= "I" (CharAt var24 567)))
(assert (= "G" (CharAt var55 829)))
(assert (= "0" (CharAt var0 584)))
(assert (= "s" (CharAt var15 203)))
(assert (= "3" (CharAt var39 59)))
(assert (= "(" (CharAt var55 372)))
(assert (= "u" (CharAt var28 383)))
(assert (= "w" (CharAt var41 235)))
(assert (= "B" (CharAt var53 595)))
(assert (= "5" (CharAt var11 697)))
(assert (= "_" (CharAt var5 374)))
(assert (= "S" (CharAt var58 733)))
(assert (= "W" (CharAt var40 552)))
(assert (= ">" (CharAt var20 51)))
(assert (= "e" (CharAt var27 112)))
(assert (= "9" (CharAt var9 636)))
(assert (= "2" (CharAt var6 618)))
(assert (= "U" (CharAt var3 281)))
(assert (= "b" (CharAt var23 927)))
(assert (= "J" (CharAt var26 915)))
(assert (= "E" (CharAt var51 785)))
(assert (= "b" (CharAt var10 225)))
(assert (= "$" (CharAt var33 774)))
(assert (= "8" (CharAt var3 833)))
(assert (= "0" (CharAt var21 432)))
(assert (= "&" (CharAt var31 267)))
(assert (= "R" (CharAt var35 833)))
(assert (= "-" (CharAt var8 640)))
(assert (= "E" (CharAt var42 914)))
(assert (= "*" (CharAt var33 431)))
(assert (= "&" (CharAt var29 931)))
(assert (= "l" (CharAt var18 366)))
(assert (= ":" (CharAt var43 491)))
(assert (= "0" (CharAt var6 525)))
(assert (= "*" (CharAt var12 867)))
(assert (= "w" (CharAt var45 829)))
(assert (= "n" (CharAt var50 242)))
(assert (= "9" (CharAt var48 42)))
(assert (= "C" (CharAt var15 759)))
(assert (= "L" (CharAt var50 345)))
(assert (= "C" (CharAt var18 520)))
(assert (= "~" (CharAt var56 629)))
(assert (= ":" (CharAt var57 368)))
(assert (= "1" (CharAt var60 125)))
(assert (= ")" (CharAt var46 876)))
(assert (= "3" (CharAt var38 711)))
(assert (= "+" (CharAt var33 365)))
(assert (= "B" (CharAt var25 663)))
(assert (= "o" (CharAt var50 565)))
(assert (= "d" (CharAt var50 468)))
(assert (= "9" (CharAt var24 333)))
(assert (= "=" (CharAt var43 383)))
(assert (= "~" (CharAt var10 572)))
(assert (= "}" (CharAt var18 685)))
(assert (= "x" (CharAt var6 31)))
(assert (= "\"" (CharAt var36 117)))
(assert (= "L" (CharAt var51 773)))
(assert (= "k" (CharAt var45 209)))
(assert (= "9" (CharAt var2 91)))
(assert (= "Y" (CharAt var38 447)))
(assert (= "7" (CharAt var29 904)))
(assert (= "D" (CharAt var46 748)))
(assert (= "/" (CharAt var39 828)))
(assert (= "3" (CharAt var19 585)))
(assert (= "1" (CharAt var29 678)))
(assert (= "p" (CharAt var39 549)))
(assert (= "H" (CharAt var57 899)))
(assert (= "D" (CharAt var8 898)))
(assert (= "Q" (CharAt var59 770)))
(assert (= "o" (CharAt var45 620)))
(assert (= "i" (CharAt var18 838)))
(assert (= "w" (CharAt var35 440)))
(assert (= "&" (CharAt var38 100)))
(assert (= "'" (CharAt var57 788)))
(assert (= "O" (CharAt var15 56)))
(assert (= "5" (CharAt var56 653)))
(assert (= "&" (CharAt var1 933)))
(assert (= "A" (CharAt var54 167)))
(assert (= "e" (CharAt var38 412)))
(assert (= "%" (CharAt var52 26)))
(assert (= "f" (CharAt var40 277)))
(assert (= "m" (CharAt var20 828)))
(assert (= "U" (CharAt var59 832)))
(assert (= "1" (CharAt var29 210)))
(assert (= "w" (CharAt var15 716)))
(assert (= "[" (CharAt var55 555)))
(assert (= "W" (CharAt var58 368)))
(assert (= "#" (CharAt var27 936)))
(assert (= "d" (CharAt var19 65)))
(assert (= "m" (CharAt var20 573)))
(assert (= "`" (CharAt var32 830)))
(assert (= "i" (CharAt var19 285)))
(assert (= "{" (CharAt var7 142)))
(assert (= "D" (CharAt var6 522)))
(assert (= "%" (CharAt var22 764)))
(assert (= "_" (CharAt var9 415)))
(assert (= "`" (CharAt var39 195)))
(assert (= "E" (CharAt var47 273)))
(assert (= "[" (CharAt var17 311)))
(assert (= "4" (CharAt var39 72)))
(assert (= "]" (CharAt var21 331)))
(assert (= "[" (CharAt var6 186)))
(assert (= "^" (CharAt var21 114)))
(assert (= "e" (CharAt var11 105)))
(assert (= "L" (CharAt var57 27)))
(assert (= ">" (CharAt var38 517)))
(assert (= "L" (CharAt var29 638)))
(assert (= ":" (CharAt var17 527)))
(assert (= "$" (CharAt var58 536)))
(assert (= "{" (CharAt var20 224)))
(assert (= "~" (CharAt var29 335)))
(assert (= "I" (CharAt var34 761)))
(assert (= "0" (CharAt var49 199)))
(assert (= "d" (CharAt var23 200)))
(assert (= "R" (CharAt var55 355)))
(assert (= "," (CharAt var6 194)))
(assert (= "R" (CharAt var0 392)))
(assert (= ")" (CharAt var51 680)))
(assert (= "." (CharAt var15 728)))
(assert (= "I" (CharAt var38 758)))
(assert (= "j" (CharAt var37 456)))
(assert (= "N" (CharAt var2 704)))
(assert (= "_" (CharAt var34 536)))
(assert (= "o" (CharAt var58 512)))
(assert (= "|" (CharAt var28 928)))
(assert (= "W" (CharAt var15 967)))
(assert (= "g" (CharAt var39 696)))
(assert (= "0" (CharAt var18 271)))
(assert (= "a" (CharAt var6 789)))
(assert (= "8" (CharAt var55 18)))
(assert (= "R" (CharAt var23 638)))
(assert (= "0" (CharAt var4 747)))
(assert (= "`" (CharAt var20 92)))
(assert (= "V" (CharAt var51 618)))
(assert (= "K" (CharAt var31 708)))
(assert (= ">" (CharAt var22 323)))
(assert (= "*" (CharAt var2 938)))
(assert (= ">" (CharAt var53 39)))
(assert (= "6" (CharAt var6 784)))
(assert (= ":" (CharAt var45 71)))
(assert (= "a" (CharAt var22 954)))
(assert (= "o" (CharAt var1 901)))
(assert (= "p" (CharAt var15 36)))
(assert (= "s" (CharAt var12 515)))
(assert (= "k" (CharAt var48 133)))
(assert (= "&" (CharAt var41 197)))
(assert (= "A" (CharAt var48 295)))
(assert (= ")" (CharAt var18 372)))
(assert (= "u" (CharAt var10 33)))
(assert (= "'" (CharAt var42 807)))
(assert (= "<" (CharAt var42 183)))
(assert (= "/" (CharAt var34 989)))
(assert (= "f" (CharAt var56 586)))
(assert (= "H" (CharAt var9 804)))
(assert (= "O" (CharAt var17 222)))
(assert (= "K" (CharAt var56 303)))
(assert (= "6" (CharAt var1 890)))
(assert (= "I" (CharAt var1 410)))
(assert (= "," (CharAt var32 982)))
(assert (= "K" (CharAt var23 968)))
(assert (= "S" (CharAt var3 405)))
(assert (= "=" (CharAt var17 129)))
(assert (= "w" (CharAt var3 949)))
(assert (= "0" (CharAt var50 562)))
(assert (= "w" (CharAt var5 378)))
(assert (= "E" (CharAt var53 276)))
(assert (= "." (CharAt var18 352)))
(assert (= "#" (CharAt var5 83)))
(assert (= "h" (CharAt var42 853)))
(assert (= "A" (CharAt var0 610)))
(assert (= "`" (CharAt var23 449)))
(assert (= "X" (CharAt var60 844)))
(assert (= "X" (CharAt var45 193)))
(assert (= "B" (CharAt var57 4)))
(assert (= "]" (CharAt var55 670)))
(assert (= "$" (CharAt var49 799)))
(assert (= "e" (CharAt var14 951)))
(assert (= "d" (CharAt var59 7)))
(assert (= "V" (CharAt var8 534)))
(assert (= ":" (CharAt var53 879)))
(assert (= "J" (CharAt var2 973)))
(assert (= "D" (CharAt var52 997)))
(assert (= "q" (CharAt var44 437)))
(assert (= "i" (CharAt var24 691)))
(assert (= "v" (CharAt var9 808)))
(assert (= "H" (CharAt var0 407)))
(assert (= "S" (CharAt var51 824)))
(assert (= "J" (CharAt var50 278)))
(assert (= "#" (CharAt var4 394)))
(assert (= "R" (CharAt var60 880)))
(assert (= "s" (CharAt var48 735)))
(assert (= "," (CharAt var17 228)))
(assert (= "!" (CharAt var2 132)))
(assert (= "~" (CharAt var45 531)))
(assert (= "A" (CharAt var14 308)))
(assert (= "T" (CharAt var38 462)))
(assert (= "]" (CharAt var43 237)))
(assert (= "q" (CharAt var7 47)))
(assert (= "L" (CharAt var11 368)))
(assert (= "L" (CharAt var4 223)))
(assert (= "9" (CharAt var31 470)))
(assert (= "u" (CharAt var22 491)))
(assert (= "*" (CharAt var2 655)))
(assert (= "i" (CharAt var11 856)))
(assert (= "d" (CharAt var49 843)))
(assert (= "Q" (CharAt var35 555)))
(assert (= "x" (CharAt var30 809)))
(assert (= "|" (CharAt var16 557)))
(assert (= "=" (CharAt var48 996)))
(assert (= "f" (CharAt var4 125)))
(assert (= "-" (CharAt var18 507)))
(assert (= "w" (CharAt var42 950)))
(assert (= "{" (CharAt var3 541)))
(assert (= "w" (CharAt var33 852)))
(assert (= "W" (CharAt var14 17)))
(assert (= "B" (CharAt var23 456)))
(assert (= ">" (CharAt var10 251)))
(assert (= ")" (CharAt var20 892)))
(assert (= "6" (CharAt var48 999)))
(assert (= "^" (CharAt var32 418)))
(assert (= "=" (CharAt var21 804)))
(assert (= "U" (CharAt var56 651)))
(assert (= "u" (CharAt var28 752)))
(assert (= "(" (CharAt var4 342)))
(assert (= "I" (CharAt var32 162)))
(assert (= "^" (CharAt var4 430)))
(assert (= "?" (CharAt var33 908)))
(assert (= "P" (CharAt var34 63)))
(assert (= "0" (CharAt var19 719)))
(assert (= "B" (CharAt var37 518)))
(assert (= "N" (CharAt var54 927)))
(assert (= "9" (CharAt var5 840)))
(assert (= "\\" (CharAt var33 509)))
(assert (= "e" (CharAt var25 800)))
(assert (= "3" (CharAt var40 881)))
(assert (= "q" (CharAt var59 82)))
(assert (= "j" (CharAt var10 873)))
(assert (= "n" (CharAt var27 73)))
(assert (= "m" (CharAt var45 636)))
(assert (= "s" (CharAt var2 496)))
(assert (= "'" (CharAt var4 836)))
(assert (= "\"" (CharAt var3 999)))
(assert (= "9" (CharAt var1 594)))
(assert (= "b" (CharAt var16 390)))
(assert (= "\\" (CharAt var26 920)))
(assert (= "N" (CharAt var5 101)))
(assert (= "D" (CharAt var32 582)))
(assert (= "O" (CharAt var31 197)))
(assert (= ";" (CharAt var30 907)))
(assert (= "d" (CharAt var45 213)))
(assert (= "B" (CharAt var54 732)))
(assert (= "e" (CharAt var38 661)))
(assert (= "K" (CharAt var52 726)))
(assert (= "i" (CharAt var11 243)))
(assert (= "l" (CharAt var16 475)))
(assert (= "z" (CharAt var50 686)))
(assert (= "9" (CharAt var40 586)))
(assert (= "f" (CharAt var11 964)))
(assert (= "X" (CharAt var30 116)))
(assert (= "1" (CharAt var36 10)))
(assert (= "%" (CharAt var30 858)))
(assert (= "." (CharAt var21 60)))
(assert (= "E" (CharAt var59 824)))
(assert (= "i" (CharAt var7 190)))
(assert (= "-" (CharAt var36 283)))
(assert (= "8" (CharAt var43 61)))
(assert (= "S" (CharAt var40 596)))
(assert (= "*" (CharAt var49 55)))
(assert (= "'" (CharAt var22 170)))
(assert (= "r" (CharAt var29 17)))
(assert (= "R" (CharAt var59 627)))
(assert (= "l" (CharAt var2 148)))
(assert (= "\"" (CharAt var17 498)))
(assert (= "." (CharAt var56 448)))
(assert (= "O" (CharAt var22 662)))
(assert (= "h" (CharAt var40 379)))
(assert (= "+" (CharAt var2 244)))
(assert (= "5" (CharAt var42 398)))
(assert (= "9" (CharAt var9 159)))
(assert (= "V" (CharAt var22 289)))
(assert (= "E" (CharAt var33 16)))
(assert (= "X" (CharAt var35 875)))
(assert (= "*" (CharAt var26 289)))
(assert (= "C" (CharAt var11 717)))
(assert (= "e" (CharAt var3 740)))
(assert (= "3" (CharAt var55 192)))
(assert (= "O" (CharAt var39 334)))
(assert (= "d" (CharAt var18 8)))
(assert (= "/" (CharAt var2 227)))
(assert (= "b" (CharAt var53 516)))
(assert (= "{" (CharAt var7 212)))
(assert (= "T" (CharAt var48 206)))
(assert (= "{" (CharAt var33 389)))
(assert (= "Q" (CharAt var47 927)))
(assert (= "3" (CharAt var4 754)))
(assert (= "U" (CharAt var58 42)))
(assert (= "m" (CharAt var50 948)))
(assert (= "*" (CharAt var56 559)))
(assert (= "," (CharAt var53 830)))
(assert (= "4" (CharAt var42 544)))
(assert (= "r" (CharAt var52 363)))
(assert (= "g" (CharAt var32 126)))
(assert (= "|" (CharAt var2 924)))
(assert (= ":" (CharAt var34 675)))
(assert (= "$" (CharAt var15 349)))
(assert (= "|" (CharAt var57 828)))
(assert (= "[" (CharAt var20 588)))
(assert (= "i" (CharAt var15 116)))
(assert (= "]" (CharAt var9 850)))
(assert (= "x" (CharAt var27 721)))
(assert (= "`" (CharAt var4 864)))
(assert (= "{" (CharAt var40 296)))
(assert (= "x" (CharAt var6 73)))
(assert (= "+" (CharAt var54 764)))
(assert (= "g" (CharAt var23 503)))
(assert (= "+" (CharAt var47 948)))
(assert (= "]" (CharAt var25 692)))
(assert (= "$" (CharAt var47 740)))
(assert (= "Q" (CharAt var51 455)))
(assert (= "R" (CharAt var60 567)))
(assert (= "U" (CharAt var38 410)))
(assert (= "i" (CharAt var41 934)))
(assert (= "\"" (CharAt var7 287)))
(assert (= "z" (CharAt var39 105)))
(assert (= "!" (CharAt var40 642)))
(assert (= ")" (CharAt var34 365)))
(assert (= "#" (CharAt var47 378)))
(assert (= "n" (CharAt var58 277)))
(assert (= "@" (CharAt var6 692)))
(assert (= "=" (CharAt var17 682)))
(assert (= "6" (CharAt var10 112)))
(assert (= "T" (CharAt var9 992)))
(assert (= "S" (CharAt var27 602)))
(assert (= ">" (CharAt var34 662)))
(assert (= "^" (CharAt var26 562)))
(assert (= "7" (CharAt var16 533)))
(assert (= "-" (CharAt var41 129)))
(assert (= "A" (CharAt var27 52)))
(assert (= "j" (CharAt var8 559)))
(assert (= "Y" (CharAt var8 529)))
(assert (= "(" (CharAt var23 239)))
(assert (= "p" (CharAt var26 38)))
(assert (= "@" (CharAt var53 66)))
(assert (= "d" (CharAt var59 349)))
(assert (= "K" (CharAt var45 498)))
(assert (= "}" (CharAt var53 278)))
(assert (= "g" (CharAt var37 795)))
(assert (= "7" (CharAt var41 401)))
(assert (= "6" (CharAt var40 284)))
(assert (= ":" (CharAt var16 586)))
(assert (= "\\" (CharAt var1 584)))
(assert (= "?" (CharAt var10 991)))
(assert (= "'" (CharAt var36 212)))
(assert (= "(" (CharAt var4 253)))
(assert (= ":" (CharAt var4 377)))
(assert (= "M" (CharAt var24 54)))
(assert (= "?" (CharAt var24 647)))
(assert (= "D" (CharAt var46 691)))
(assert (= "?" (CharAt var14 23)))
(assert (= "E" (CharAt var19 613)))
(assert (= "R" (CharAt var12 378)))
(assert (= "0" (CharAt var54 212)))
(assert (= "U" (CharAt var36 817)))
(assert (= ":" (CharAt var52 887)))
(assert (= "Y" (CharAt var39 794)))
(assert (= "j" (CharAt var56 896)))
(assert (= "$" (CharAt var45 900)))
(assert (= "f" (CharAt var1 588)))
(assert (= "}" (CharAt var43 128)))
(assert (= "5" (CharAt var12 419)))
(assert (= "n" (CharAt var51 900)))
(assert (= "P" (CharAt var23 682)))
(assert (= "!" (CharAt var22 295)))
(assert (= "8" (CharAt var55 585)))
(assert (= "k" (CharAt var0 853)))
(assert (= "r" (CharAt var30 971)))
(assert (= ";" (CharAt var1 183)))
(assert (= "k" (CharAt var15 57)))
(assert (= "e" (CharAt var42 116)))
(assert (= "j" (CharAt var26 595)))
(assert (= "," (CharAt var10 290)))
(assert (= "[" (CharAt var17 721)))
(assert (= "f" (CharAt var10 738)))
(assert (= "%" (CharAt var50 379)))
(assert (= "L" (CharAt var46 419)))
(assert (= "3" (CharAt var59 950)))
(assert (= "I" (CharAt var33 158)))
(assert (= "6" (CharAt var13 53)))
(assert (= "z" (CharAt var43 354)))
(assert (= "7" (CharAt var17 636)))
(assert (= "1" (CharAt var49 301)))
(assert (= "}" (CharAt var39 937)))
(assert (= "Z" (CharAt var0 677)))
(assert (= "w" (CharAt var24 220)))
(assert (= "O" (CharAt var0 476)))
(assert (= "L" (CharAt var48 588)))
(assert (= "B" (CharAt var14 149)))
(assert (= "u" (CharAt var5 478)))
(assert (= "V" (CharAt var29 71)))
(assert (= "T" (CharAt var15 325)))
(assert (= "j" (CharAt var42 78)))
(assert (= "^" (CharAt var33 640)))
(assert (= "x" (CharAt var15 196)))
(assert (= "|" (CharAt var38 43)))
(assert (= "@" (CharAt var45 365)))
(assert (= "G" (CharAt var58 935)))
(assert (= "-" (CharAt var22 726)))
(assert (= "2" (CharAt var5 327)))
(assert (= "G" (CharAt var47 117)))
(assert (= "|" (CharAt var14 447)))
(assert (= "8" (CharAt var5 986)))
(assert (= "a" (CharAt var56 18)))
(assert (= "k" (CharAt var9 663)))
(assert (= "v" (CharAt var8 899)))
(assert (= ">" (CharAt var21 407)))
(assert (= "D" (CharAt var26 17)))
(assert (= "S" (CharAt var40 353)))
(assert (= "L" (CharAt var25 448)))
(assert (= "C" (CharAt var51 5)))
(assert (= "8" (CharAt var49 793)))
(assert (= "{" (CharAt var14 920)))
(assert (= "D" (CharAt var8 555)))
(assert (= "q" (CharAt var23 698)))
(assert (= "L" (CharAt var60 79)))
(assert (= "x" (CharAt var53 884)))
(assert (= "u" (CharAt var45 26)))
(assert (= "S" (CharAt var4 910)))
(assert (= "@" (CharAt var48 43)))
(assert (= "M" (CharAt var34 412)))
(assert (= "m" (CharAt var5 465)))
(assert (= "\"" (CharAt var39 598)))
(assert (= "'" (CharAt var6 484)))
(assert (= "F" (CharAt var58 506)))
(assert (= "/" (CharAt var57 452)))
(assert (= "Z" (CharAt var44 521)))
(assert (= "0" (CharAt var55 137)))
(assert (= "a" (CharAt var36 617)))
(assert (= "C" (CharAt var54 177)))
(assert (= "V" (CharAt var33 676)))
(assert (= ")" (CharAt var2 342)))
(assert (= "H" (CharAt var60 432)))
(assert (= "7" (CharAt var28 463)))
(assert (= "]" (CharAt var46 693)))
(assert (= "]" (CharAt var23 626)))
(assert (= "t" (CharAt var46 798)))
(assert (= "3" (CharAt var39 708)))
(assert (= "h" (CharAt var17 511)))
(assert (= "h" (CharAt var60 994)))
(assert (= "|" (CharAt var31 449)))
(assert (= "T" (CharAt var22 335)))
(assert (= "g" (CharAt var36 171)))
(assert (= "b" (CharAt var3 770)))
(assert (= "U" (CharAt var53 1)))
(assert (= "H" (CharAt var25 902)))
(assert (= "F" (CharAt var59 195)))
(assert (= "a" (CharAt var41 26)))
(assert (= "," (CharAt var5 786)))
(assert (= "M" (CharAt var5 340)))
(assert (= "h" (CharAt var28 184)))
(assert (= "6" (CharAt var23 75)))
(assert (= "l" (CharAt var52 368)))
(assert (= "a" (CharAt var18 112)))
(assert (= "y" (CharAt var36 650)))
(assert (= "^" (CharAt var41 176)))
(assert (= "T" (CharAt var25 907)))
(assert (= "e" (CharAt var31 143)))
(assert (= "<" (CharAt var12 879)))
(assert (= "Q" (CharAt var2 927)))
(assert (= "3" (CharAt var27 356)))
(assert (= "y" (CharAt var19 574)))
(assert (= "[" (CharAt var4 44)))
(assert (= "]" (CharAt var48 629)))
(assert (= "y" (CharAt var40 66)))
(assert (= "W" (CharAt var19 567)))
(assert (= ";" (CharAt var36 150)))
(assert (= "3" (CharAt var30 720)))
(assert (= "C" (CharAt var8 222)))
(assert (= ")" (CharAt var55 287)))
(assert (= "j" (CharAt var16 396)))
(assert (= "," (CharAt var22 677)))
(assert (= "Y" (CharAt var53 322)))
(assert (= "s" (CharAt var54 15)))
(assert (= "f" (CharAt var0 299)))
(assert (= "<" (CharAt var8 754)))
(assert (= "W" (CharAt var30 631)))
(assert (= "c" (CharAt var8 189)))
(assert (= "@" (CharAt var18 621)))
(assert (= "S" (CharAt var52 656)))
(assert (= "=" (CharAt var60 672)))
(assert (= "K" (CharAt var30 27)))
(assert (= "j" (CharAt var17 768)))
(assert (= "`" (CharAt var43 156)))
(assert (= "J" (CharAt var8 567)))
(assert (= "y" (CharAt var48 580)))
(assert (= "C" (CharAt var57 780)))
(assert (= "-" (CharAt var4 573)))
(assert (= "L" (CharAt var45 48)))
(assert (= "q" (CharAt var47 434)))
(assert (= "." (CharAt var41 677)))
(assert (= "!" (CharAt var31 614)))
(assert (= "o" (CharAt var46 948)))
(assert (= "n" (CharAt var25 43)))
(assert (= "k" (CharAt var40 324)))
(assert (= "W" (CharAt var7 507)))
(assert (= "Q" (CharAt var16 884)))
(assert (= "." (CharAt var4 899)))
(assert (= "?" (CharAt var5 311)))
(assert (= "T" (CharAt var45 720)))
(assert (= "*" (CharAt var53 307)))
(assert (= "U" (CharAt var21 255)))
(assert (= "%" (CharAt var14 530)))
(assert (= "|" (CharAt var57 804)))
(assert (= "Y" (CharAt var38 330)))
(assert (= "C" (CharAt var49 602)))
(assert (= "w" (CharAt var60 419)))
(assert (= "w" (CharAt var46 871)))
(assert (= "W" (CharAt var56 690)))
(assert (= "*" (CharAt var29 509)))
(assert (= "H" (CharAt var21 830)))
(assert (= "." (CharAt var9 466)))
(assert (= "1" (CharAt var5 794)))
(assert (= "{" (CharAt var53 367)))
(assert (= "$" (CharAt var59 476)))
(assert (= "\\" (CharAt var41 500)))
(assert (= "=" (CharAt var53 303)))
(assert (= ";" (CharAt var58 784)))
(assert (= "4" (CharAt var58 450)))
(assert (= "'" (CharAt var36 131)))
(assert (= "9" (CharAt var6 276)))
(assert (= "I" (CharAt var20 455)))
(assert (= "r" (CharAt var13 756)))
(assert (= "5" (CharAt var50 813)))
(assert (= "(" (CharAt var20 784)))
(assert (= "X" (CharAt var51 895)))
(assert (= "+" (CharAt var21 78)))
(assert (= "9" (CharAt var27 534)))
(assert (= "e" (CharAt var14 910)))
(assert (= "\\" (CharAt var27 143)))
(assert (= "6" (CharAt var25 64)))
(assert (= "%" (CharAt var28 564)))
(assert (= "d" (CharAt var46 496)))
(assert (= "[" (CharAt var8 712)))
(assert (= "K" (CharAt var27 179)))
(assert (= "o" (CharAt var33 711)))
(assert (= ")" (CharAt var10 963)))
(assert (= "]" (CharAt var11 174)))
(check-sat)